c WARNING: for repeatability, setting FPU to use double precision
d VARIABLES            59274        
d CONSTRAINTS          257719       
c ============================[ Problem Statistics ]=============================
c |                                                                             |
c |  Number of variables:         59274                                         |
c |  Number of clauses:          257719                                         |
c |  Parse time:                   0.04 s                                       |
c |                                                                             |
c ============================[ Search Statistics ]==============================
c | Conflicts |          ORIGINAL         |          LEARNT          | Progress |
c |           |    Vars  Clauses Literals |    Limit  Clauses Lit/Cl |          |
c ===============================================================================
c |       100 |   48707   227819   553202 |    83533      100     11 | 17.827 % |
c |       250 |   48707   227819   553202 |    91886      250      9 | 17.827 % |
c |       475 |   48707   227819   553202 |   101075      475     22 | 17.827 % |
c |       812 |   48707   227819   553202 |   111183      812     47 | 17.827 % |
c |      1318 |   48707   227819   553202 |   122301     1318     66 | 17.827 % |
c |      2077 |   48707   227819   553202 |   134531     2077     61 | 17.827 % |
c |      3216 |   48707   227819   553202 |   147984     3216     67 | 17.827 % |
c |      4924 |   48707   227819   553202 |   162783     4924     71 | 17.827 % |
c |      7486 |   48707   227819   553202 |   179061     7486     96 | 17.827 % |
c |     11330 |   48707   227819   553202 |   196967    11330     93 | 17.827 % |
c |     17096 |   48707   227819   553202 |   216664    17096     92 | 17.827 % |
c |     25745 |   48707   227819   553202 |   238331    25745     97 | 17.827 % |
c |     38719 |   48707   227819   553202 |   262164    38719    107 | 17.827 % |
c |     58180 |   48707   227819   553202 |   288380    58180    118 | 17.827 % |
c |     87372 |   48707   227819   553202 |   317218    87372    130 | 17.827 % |
c |    131161 |   48707   227819   553202 |   348940   131161    143 | 17.827 % |
c |    196845 |   48707   227819   553202 |   383834   196845    160 | 17.827 % |
c |    295371 |   48707   227819   553202 |   422218   295371    176 | 17.827 % |
c |    443160 |   48707   227819   553202 |   464440    25737     60 | 17.827 % |
c |    664843 |   48707   227819   553202 |   510884   247420    150 | 17.827 % |
c |    997368 |   48707   227819   553202 |   561972    74774    132 | 17.827 % |
c |   1496156 |   48707   227819   553202 |   618169    34042     86 | 17.827 % |
c |   2244338 |   48707   227819   553202 |   679986   167037    321 | 17.827 % |
c ===============================================================================
c restarts              : 6008
c conflicts             : 3340344        (1865 /sec)
c decisions             : 8780014        (0.00 % random) (4901 /sec)
c propagations          : 3087546142     (1723515 /sec)
c conflict literals     : 758043224      (24.63 % deleted)
d RESTARTS             6008
d FAILURES             3340344      
d NODES                8780014      
d BACKTRACKS           8780014      
d PROPAGATIONS         3087546142   
d NOGOODSIZE           226.94 
d MEMORY               1035.00 
d TIME                 1791.42 

s UNKNOWN
